************************************************************************
file with basedata            : n/a
initial value random generator: n/a
************************************************************************
projects                      :  1
jobs (incl. supersource/sink ):  32
horizon                       :  178
RESOURCES
  - renewable                 :  4   R
  - nonrenewable              :  0   N
  - doubly constrained        :  0   D
************************************************************************
PROJECT INFORMATION:
pronr.  #jobs rel.date duedate tardcost  MPM-Time
    1     30      0       44       11       44
************************************************************************
PRECEDENCE RELATIONS:
jobnr.    #modes  #successors   successors
   1        1          3           2   3   4
   2        1          3           7   9  24
   3        1          3           6  21  30
   4        1          3           5   9  13
   5        1          3          11  19  22
   6        1          3          10  14  18
   7        1          3           8  16  17
   8        1          1          23
   9        1          3          12  15  19
  10        1          2          16  26
  11        1          3          18  24  27
  12        1          1          27
  13        1          2          20  27
  14        1          2          15  29
  15        1          1          16
  16        1          1          31
  17        1          1          25
  18        1          1          23
  19        1          2          20  21
  20        1          2          23  28
  21        1          1          29
  22        1          3          25  26  31
  23        1          2          26  31
  24        1          2          25  28
  25        1          1          30
  26        1          1          29
  27        1          1          28
  28        1          1          30
  29        1          1          32
  30        1          1          32
  31        1          1          32
  32        1          0        
************************************************************************
REQUESTS/DURATIONS:
jobnr. mode duration  R 1  R 2  R 3  R 4
------------------------------------------------------------------------
  1      1     0    
  2      1     2       8   8
                      10  10
                       8   8
                       7   7
  3      1     3       0   3   0
                       0   7   0
                       0   7   0
                       0   3   0
  4      1     2       8   0
                       8   0
                       7   0
                       7   0
  5      1     7       0  10  10   0  10  10  10
                       0   6   6   0   6   6   6
                       0   1   1   0   1   1   1
                       0   8   8   0   8   8   8
  6      1     6       8   0   8   0   0   8
                       2   0   2   0   0   2
                       5   0   5   0   0   5
                       1   0   1   0   0   1
  7      1     6       2   2   0   2   0   2
                       7   7   0   7   0   7
                       1   1   0   1   0   1
                       3   3   0   3   0   3
  8      1     4       0   1   1   1
                       0   5   5   5
                       0   2   2   2
                       0   1   1   1
  9      1     8      10  10   0  10  10  10   0  10
                       7   7   0   7   7   7   0   7
                       5   5   0   5   5   5   0   5
                       1   1   0   1   1   1   0   1
 10      1     2       9   9
                       4   4
                       9   9
                       7   7
 11      1     4       5   0   5   0
                       6   0   6   0
                       8   0   8   0
                       4   0   4   0
 12      1     7       8   8   8   8   8   8   8
                       1   1   1   1   1   1   1
                       6   6   6   6   6   6   6
                       7   7   7   7   7   7   7
 13      1    10      10  10  10  10   0  10  10  10  10  10
                       6   6   6   6   0   6   6   6   6   6
                       4   4   4   4   0   4   4   4   4   4
                       1   1   1   1   0   1   1   1   1   1
 14      1     8       6   0   6   0   6   6   6   6
                       8   0   8   0   8   8   8   8
                       7   0   7   0   7   7   7   7
                       3   0   3   0   3   3   3   3
 15      1     5       7   7   7   7   0
                       9   9   9   9   0
                       2   2   2   2   0
                      10  10  10  10   0
 16      1     1       6
                       5
                       4
                       8
 17      1     9      10   0  10  10  10  10  10  10  10
                       5   0   5   5   5   5   5   5   5
                       5   0   5   5   5   5   5   5   5
                      10   0  10  10  10  10  10  10  10
 18      1     1       6
                       8
                      10
                       8
 19      1     7       5   5   5   5   5   5   5
                       3   3   3   3   3   3   3
                       8   8   8   8   8   8   8
                       1   1   1   1   1   1   1
 20      1     7       8   8   0   8   8   8   8
                       4   4   0   4   4   4   4
                       6   6   0   6   6   6   6
                       1   1   0   1   1   1   1
 21      1     6       1   1   1   1   1   1
                       8   8   8   8   8   8
                       3   3   3   3   3   3
                      10  10  10  10  10  10
 22      1     8       6   6   6   6   6   6   0   6
                       2   2   2   2   2   2   0   2
                       4   4   4   4   4   4   0   4
                      10  10  10  10  10  10   0  10
 23      1     8       3   3   3   3   3   3   3   0
                       5   5   5   5   5   5   5   0
                       5   5   5   5   5   5   5   0
                       1   1   1   1   1   1   1   0
 24      1     9       1   1   1   0   1   1   0   1   0
                      10  10  10   0  10  10   0  10   0
                       6   6   6   0   6   6   0   6   0
                       3   3   3   0   3   3   0   3   0
 25      1     8       8   8   8   8   8   8   0   8
                       1   1   1   1   1   1   0   1
                      10  10  10  10  10  10   0  10
                       9   9   9   9   9   9   0   9
 26      1     3      10  10  10
                       9   9   9
                       9   9   9
                       5   5   5
 27      1     6       9   9   0   9   9   9
                       5   5   0   5   5   5
                      10  10   0  10  10  10
                       8   8   0   8   8   8
 28      1     9       7   7   0   7   7   0   7   7   0
                       8   8   0   8   8   0   8   8   0
                       5   5   0   5   5   0   5   5   0
                       7   7   0   7   7   0   7   7   0
 29      1     9       0   4   4   4   4   4   4   4   4
                       0  10  10  10  10  10  10  10  10
                       0   5   5   5   5   5   5   5   5
                       0   1   1   1   1   1   1   1   1
 30      1     8       6   6   6   6   6   6   6   6
                       7   7   7   7   7   7   7   7
                       2   2   2   2   2   2   2   2
                      10  10  10  10  10  10  10  10
 31      1     5       0   3   3   3   3
                       0   1   1   1   1
                       0   2   2   2   2
                       0   5   5   5   5
 32      1     0    
************************************************************************
RESOURCEAVAILABILITIES:
  R 1  R 2  R 3  R 4

   0  35  35  35  35  35  35  35   0  35  35  35  35  35  35  35  35   0  35  35   0   0  35  35  35   0  35  35  35  35  35  35  35  35  35  35  35   0  35  35  35  35  35  35  35   0  35   0   0  35  35  35  35  35  35  35  35  35  35  35  35  35  35   0  35  35  35   0  35  35  35   0  35   0  35  35  35  35  35  35  35  35   0  35  35  35   0   0  35  35  35  35  35  35   0  35  35  35  35  35  35  35  35  35  35   0  35   0  35  35  35  35  35  35   0  35  35  35  35   0  35  35  35   0  35  35   0  35  35  35  35   0  35   0   0  35  35  35   0   0   0  35  35  35  35  35  35  35  35   0  35  35  35  35   0  35  35  35   0  35  35  35  35  35  35  35  35  35   0  35  35  35   0  35  35  35   0  35

   0  27  27  27  27  27  27  27   0  27  27  27  27  27  27  27  27   0  27  27   0   0  27  27  27   0  27  27  27  27  27  27  27  27  27  27  27   0  27  27  27  27  27  27  27   0  27   0   0  27  27  27  27  27  27  27  27  27  27  27  27  27  27   0  27  27  27   0  27  27  27   0  27   0  27  27  27  27  27  27  27  27   0  27  27  27   0   0  27  27  27  27  27  27   0  27  27  27  27  27  27  27  27  27  27   0  27   0  27  27  27  27  27  27   0  27  27  27  27   0  27  27  27   0  27  27   0  27  27  27  27   0  27   0   0  27  27  27   0   0   0  27  27  27  27  27  27  27  27   0  27  27  27  27   0  27  27  27   0  27  27  27  27  27  27  27  27  27   0  27  27  27   0  27  27  27   0  27

   0  32  32  32  32  32  32  32   0  32  32  32  32  32  32  32  32   0  32  32   0   0  32  32  32   0  32  32  32  32  32  32  32  32  32  32  32   0  32  32  32  32  32  32  32   0  32   0   0  32  32  32  32  32  32  32  32  32  32  32  32  32  32   0  32  32  32   0  32  32  32   0  32   0  32  32  32  32  32  32  32  32   0  32  32  32   0   0  32  32  32  32  32  32   0  32  32  32  32  32  32  32  32  32  32   0  32   0  32  32  32  32  32  32   0  32  32  32  32   0  32  32  32   0  32  32   0  32  32  32  32   0  32   0   0  32  32  32   0   0   0  32  32  32  32  32  32  32  32   0  32  32  32  32   0  32  32  32   0  32  32  32  32  32  32  32  32  32   0  32  32  32   0  32  32  32   0  32

   0  27  27  27  27  27  27  27   0  27  27  27  27  27  27  27  27   0  27  27   0   0  27  27  27   0  27  27  27  27  27  27  27  27  27  27  27   0  27  27  27  27  27  27  27   0  27   0   0  27  27  27  27  27  27  27  27  27  27  27  27  27  27   0  27  27  27   0  27  27  27   0  27   0  27  27  27  27  27  27  27  27   0  27  27  27   0   0  27  27  27  27  27  27   0  27  27  27  27  27  27  27  27  27  27   0  27   0  27  27  27  27  27  27   0  27  27  27  27   0  27  27  27   0  27  27   0  27  27  27  27   0  27   0   0  27  27  27   0   0   0  27  27  27  27  27  27  27  27   0  27  27  27  27   0  27  27  27   0  27  27  27  27  27  27  27  27  27   0  27  27  27   0  27  27  27   0  27

************************************************************************
